\ Model UAVstrike
\ LP format - for model browsing. Use MPS format to capture full model detail.
Minimize
  0.1 C90 + 0.1 C91 + 0.1 C92 + 0.1 C93 + 0.1 C94 + 0.1 C95 + C96
Subject To
 R0: C20 + C23 + C26 + C29 + C32 + C40 + C46 + C52 + C58 + C64 = 1
 R1: C5 + C8 + C11 + C14 + C17 + C43 + C49 + C55 + C61 + C67 = 1
 R2: C22 + C25 + C28 + C31 + C34 + C42 + C48 + C54 + C60 + C66 = 1
 R3: C7 + C10 + C13 + C16 + C19 + C45 + C51 + C57 + C63 + C69 = 1
 R4: C0 + C1 + C2 + C3 + C4 + C21 + C24 + C27 + C30 + C33 + C41 + C47 + C53
   + C59 + C65 = 1
 R5: C6 + C9 + C12 + C15 + C18 + C35 + C36 + C37 + C38 + C39 + C44 + C50
   + C56 + C62 + C68 = 1
 R6: C20 + C23 + C26 + C29 + C32 + C40 + C46 + C52 + C58 + C64 <= 1
 R7: C5 + C8 + C11 + C14 + C17 + C43 + C49 + C55 + C61 + C67 <= 1
 R8: C22 + C25 + C28 + C31 + C34 + C42 + C48 + C54 + C60 + C66 <= 1
 R9: C7 + C10 + C13 + C16 + C19 + C45 + C51 + C57 + C63 + C69 <= 1
 R10: C0 + C1 + C2 + C3 + C4 + C21 + C24 + C27 + C30 + C33 + C41 + C47
   + C53 + C59 + C65 <= 1
 R11: C6 + C9 + C12 + C15 + C18 + C35 + C36 + C37 + C38 + C39 + C44 + C50
   + C56 + C62 + C68 <= 1
 R12: C20 + C21 + C22 + C40 + C41 + C42 <= 1
 R13: C5 + C6 + C7 + C43 + C44 + C45 <= 1
 R14: C23 + C24 + C25 + C46 + C47 + C48 <= 1
 R15: C8 + C9 + C10 + C49 + C50 + C51 <= 1
 R16: C26 + C27 + C28 + C52 + C53 + C54 <= 1
 R17: C11 + C12 + C13 + C55 + C56 + C57 <= 1
 R18: C29 + C30 + C31 + C58 + C59 + C60 <= 1
 R19: C14 + C15 + C16 + C61 + C62 + C63 <= 1
 R20: C32 + C33 + C34 + C64 + C65 + C66 <= 1
 R21: C17 + C18 + C19 + C67 + C68 + C69 <= 1
 R22: C70 + C75 + C80 <= 1
 R23: C71 + C76 + C81 <= 1
 R24: C72 + C77 + C82 <= 1
 R25: C73 + C78 + C83 <= 1
 R26: C74 + C79 + C84 <= 1
 R27: C20 + C21 + C22 + C40 + C41 + C42 + 3 C75 + 3 C80 <= 1
 R28: C5 + C6 + C7 + C43 + C44 + C45 + 3 C70 + 3 C80 <= 1
 R29: C23 + C24 + C25 + C46 + C47 + C48 + 3 C76 + 3 C81 <= 1
 R30: C8 + C9 + C10 + C49 + C50 + C51 + 3 C71 + 3 C81 <= 1
 R31: C26 + C27 + C28 + C52 + C53 + C54 + 3 C77 + 3 C82 <= 1
 R32: C11 + C12 + C13 + C55 + C56 + C57 + 3 C72 + 3 C82 <= 1
 R33: C29 + C30 + C31 + C58 + C59 + C60 + 3 C78 + 3 C83 <= 1
 R34: C14 + C15 + C16 + C61 + C62 + C63 + 3 C73 + 3 C83 <= 1
 R35: C32 + C33 + C34 + C64 + C65 + C66 + 3 C79 + 3 C84 <= 1
 R36: C17 + C18 + C19 + C67 + C68 + C69 + 3 C74 + 3 C84 <= 1
 R37: C40 + C41 + C42 + C43 + C44 + C45 + C80 = 1
 R38: C46 + C47 + C48 + C49 + C50 + C51 + C81 = 1
 R39: C52 + C53 + C54 + C55 + C56 + C57 + C82 = 1
 R40: C58 + C59 + C60 + C61 + C62 + C63 + C83 = 1
 R41: C64 + C65 + C66 + C67 + C68 + C69 + C84 = 1
 R42: C0 - C20 - C40 <= 0
 R43: C1 - C23 - C46 <= 0
 R44: C2 - C26 - C52 <= 0
 R45: C3 - C29 - C58 <= 0
 R46: C4 - C32 - C64 <= 0
 R47: - C5 + C35 - C43 <= 0
 R48: - C8 + C36 - C49 <= 0
 R49: - C11 + C37 - C55 <= 0
 R50: - C14 + C38 - C61 <= 0
 R51: - C17 + C39 - C67 <= 0
 R52: 500 C5 + 500 C20 + 500 C40 - C90 + C93 <= 1001
 R53: - 500 C5 - 500 C20 - 500 C40 - C90 + C93 >= -999
 R54: 500 C5 + 500 C22 + 500 C42 - C92 + C93 <= 1001
 R55: - 500 C5 - 500 C22 - 500 C42 - C92 + C93 >= -999
 R56: 500 C7 + 500 C20 + 500 C40 - C90 + C95 <= 1005
 R57: - 500 C7 - 500 C20 - 500 C40 - C90 + C95 >= -995
 R58: 500 C7 + 500 C22 + 500 C42 - C92 + C95 <= 1005
 R59: - 500 C7 - 500 C22 - 500 C42 - C92 + C95 >= -995
 R60: 500 C8 + 500 C23 + 500 C46 - C90 + C93 <= 1026
 R61: - 500 C8 - 500 C23 - 500 C46 - C90 + C93 >= -974
 R62: 500 C8 + 500 C25 + 500 C48 - C92 + C93 <= 1026
 R63: - 500 C8 - 500 C25 - 500 C48 - C92 + C93 >= -974
 R64: 500 C10 + 500 C23 + 500 C46 - C90 + C95 <= 1001
 R65: - 500 C10 - 500 C23 - 500 C46 - C90 + C95 >= -999
 R66: 500 C10 + 500 C25 + 500 C48 - C92 + C95 <= 1001
 R67: - 500 C10 - 500 C25 - 500 C48 - C92 + C95 >= -999
 R68: 500 C11 + 500 C26 + 500 C52 - C90 + C93 <= 1023
 R69: - 500 C11 - 500 C26 - 500 C52 - C90 + C93 >= -977
 R70: 500 C11 + 500 C28 + 500 C54 - C92 + C93 <= 1023
 R71: - 500 C11 - 500 C28 - 500 C54 - C92 + C93 >= -977
 R72: 500 C13 + 500 C26 + 500 C52 - C90 + C95 <= 1009
 R73: - 500 C13 - 500 C26 - 500 C52 - C90 + C95 >= -991
 R74: 500 C13 + 500 C28 + 500 C54 - C92 + C95 <= 1009
 R75: - 500 C13 - 500 C28 - 500 C54 - C92 + C95 >= -991
 R76: 500 C14 + 500 C29 + 500 C58 - C90 + C93 <= 1020
 R77: - 500 C14 - 500 C29 - 500 C58 - C90 + C93 >= -980
 R78: 500 C14 + 500 C31 + 500 C60 - C92 + C93 <= 1020
 R79: - 500 C14 - 500 C31 - 500 C60 - C92 + C93 >= -980
 R80: 500 C16 + 500 C29 + 500 C58 - C90 + C95 <= 1028
 R81: - 500 C16 - 500 C29 - 500 C58 - C90 + C95 >= -972
 R82: 500 C16 + 500 C31 + 500 C60 - C92 + C95 <= 1028
 R83: - 500 C16 - 500 C31 - 500 C60 - C92 + C95 >= -972
 R84: 500 C17 + 500 C32 + 500 C64 - C90 + C93 <= 1010
 R85: - 500 C17 - 500 C32 - 500 C64 - C90 + C93 >= -990
 R86: 500 C17 + 500 C34 + 500 C66 - C92 + C93 <= 1010
 R87: - 500 C17 - 500 C34 - 500 C66 - C92 + C93 >= -990
 R88: 500 C19 + 500 C32 + 500 C64 - C90 + C95 <= 1030
 R89: - 500 C19 - 500 C32 - 500 C64 - C90 + C95 >= -970
 R90: 500 C19 + 500 C34 + 500 C66 - C92 + C95 <= 1030
 R91: - 500 C19 - 500 C34 - 500 C66 - C92 + C95 >= -970
 R92: 500 C5 + 500 C20 + 500 C43 + C90 - C93 <= 1009
 R93: - 500 C5 - 500 C20 - 500 C43 + C90 - C93 >= -991
 R94: 500 C7 + 500 C20 + 500 C45 + C90 - C95 <= 1009
 R95: - 500 C7 - 500 C20 - 500 C45 + C90 - C95 >= -991
 R96: 500 C5 + 500 C22 + 500 C43 + C92 - C93 <= 1007
 R97: - 500 C5 - 500 C22 - 500 C43 + C92 - C93 >= -993
 R98: 500 C7 + 500 C22 + 500 C45 + C92 - C95 <= 1007
 R99: - 500 C7 - 500 C22 - 500 C45 + C92 - C95 >= -993
 R100: 500 C8 + 500 C23 + 500 C49 + C90 - C93 <= 1029
 R101: - 500 C8 - 500 C23 - 500 C49 + C90 - C93 >= -971
 R102: 500 C10 + 500 C23 + 500 C51 + C90 - C95 <= 1029
 R103: - 500 C10 - 500 C23 - 500 C51 + C90 - C95 >= -971
 R104: 500 C8 + 500 C25 + 500 C49 + C92 - C93 <= 1006
 R105: - 500 C8 - 500 C25 - 500 C49 + C92 - C93 >= -994
 R106: 500 C10 + 500 C25 + 500 C51 + C92 - C95 <= 1006
 R107: - 500 C10 - 500 C25 - 500 C51 + C92 - C95 >= -994
 R108: 500 C11 + 500 C26 + 500 C55 + C90 - C93 <= 1004
 R109: - 500 C11 - 500 C26 - 500 C55 + C90 - C93 >= -996
 R110: 500 C13 + 500 C26 + 500 C57 + C90 - C95 <= 1004
 R111: - 500 C13 - 500 C26 - 500 C57 + C90 - C95 >= -996
 R112: 500 C11 + 500 C28 + 500 C55 + C92 - C93 <= 1026
 R113: - 500 C11 - 500 C28 - 500 C55 + C92 - C93 >= -974
 R114: 500 C13 + 500 C28 + 500 C57 + C92 - C95 <= 1026
 R115: - 500 C13 - 500 C28 - 500 C57 + C92 - C95 >= -974
 R116: 500 C14 + 500 C29 + 500 C61 + C90 - C93 <= 1013
 R117: - 500 C14 - 500 C29 - 500 C61 + C90 - C93 >= -987
 R118: 500 C16 + 500 C29 + 500 C63 + C90 - C95 <= 1013
 R119: - 500 C16 - 500 C29 - 500 C63 + C90 - C95 >= -987
 R120: 500 C14 + 500 C31 + 500 C61 + C92 - C93 <= 1012
 R121: - 500 C14 - 500 C31 - 500 C61 + C92 - C93 >= -988
 R122: 500 C16 + 500 C31 + 500 C63 + C92 - C95 <= 1012
 R123: - 500 C16 - 500 C31 - 500 C63 + C92 - C95 >= -988
 R124: 500 C17 + 500 C32 + 500 C67 + C90 - C93 <= 1025
 R125: - 500 C17 - 500 C32 - 500 C67 + C90 - C93 >= -975
 R126: 500 C19 + 500 C32 + 500 C69 + C90 - C95 <= 1025
 R127: - 500 C19 - 500 C32 - 500 C69 + C90 - C95 >= -975
 R128: 500 C17 + 500 C34 + 500 C67 + C92 - C93 <= 1005
 R129: - 500 C17 - 500 C34 - 500 C67 + C92 - C93 >= -995
 R130: 500 C19 + 500 C34 + 500 C69 + C92 - C95 <= 1005
 R131: - 500 C19 - 500 C34 - 500 C69 + C92 - C95 >= -995
 R132: 500 C0 + 500 C20 + 500 C40 - C90 + C91 <= 1010
 R133: - 500 C0 - 500 C20 - 500 C40 - C90 + C91 >= -990
 R134: 500 C1 + 500 C23 + 500 C46 - C90 + C91 <= 1001
 R135: - 500 C1 - 500 C23 - 500 C46 - C90 + C91 >= -999
 R136: 500 C2 + 500 C26 + 500 C52 - C90 + C91 <= 1024
 R137: - 500 C2 - 500 C26 - 500 C52 - C90 + C91 >= -976
 R138: 500 C3 + 500 C29 + 500 C58 - C90 + C91 <= 1020
 R139: - 500 C3 - 500 C29 - 500 C58 - C90 + C91 >= -980
 R140: 500 C4 + 500 C32 + 500 C64 - C90 + C91 <= 1010
 R141: - 500 C4 - 500 C32 - 500 C64 - C90 + C91 >= -990
 R142: 500 C6 + 500 C20 + 500 C40 - C90 + C94 <= 1008
 R143: - 500 C6 - 500 C20 - 500 C40 - C90 + C94 >= -992
 R144: 500 C6 + 500 C22 + 500 C42 - C92 + C94 <= 1008
 R145: - 500 C6 - 500 C22 - 500 C42 - C92 + C94 >= -992
 R146: 500 C9 + 500 C23 + 500 C46 - C90 + C94 <= 1007
 R147: - 500 C9 - 500 C23 - 500 C46 - C90 + C94 >= -993
 R148: 500 C9 + 500 C25 + 500 C48 - C92 + C94 <= 1007
 R149: - 500 C9 - 500 C25 - 500 C48 - C92 + C94 >= -993
 R150: 500 C12 + 500 C26 + 500 C52 - C90 + C94 <= 1006
 R151: - 500 C12 - 500 C26 - 500 C52 - C90 + C94 >= -994
 R152: 500 C12 + 500 C28 + 500 C54 - C92 + C94 <= 1006
 R153: - 500 C12 - 500 C28 - 500 C54 - C92 + C94 >= -994
 R154: 500 C15 + 500 C29 + 500 C58 - C90 + C94 <= 1008
 R155: - 500 C15 - 500 C29 - 500 C58 - C90 + C94 >= -992
 R156: 500 C15 + 500 C31 + 500 C60 - C92 + C94 <= 1008
 R157: - 500 C15 - 500 C31 - 500 C60 - C92 + C94 >= -992
 R158: 500 C18 + 500 C32 + 500 C64 - C90 + C94 <= 1007
 R159: - 500 C18 - 500 C32 - 500 C64 - C90 + C94 >= -993
 R160: 500 C18 + 500 C34 + 500 C66 - C92 + C94 <= 1007
 R161: - 500 C18 - 500 C34 - 500 C66 - C92 + C94 >= -993
 R162: 500 C5 + 500 C21 + 500 C43 + C91 - C93 <= 1022
 R163: - 500 C5 - 500 C21 - 500 C43 + C91 - C93 >= -978
 R164: 500 C7 + 500 C21 + 500 C45 + C91 - C95 <= 1022
 R165: - 500 C7 - 500 C21 - 500 C45 + C91 - C95 >= -978
 R166: 500 C8 + 500 C24 + 500 C49 + C91 - C93 <= 1025
 R167: - 500 C8 - 500 C24 - 500 C49 + C91 - C93 >= -975
 R168: 500 C10 + 500 C24 + 500 C51 + C91 - C95 <= 1025
 R169: - 500 C10 - 500 C24 - 500 C51 + C91 - C95 >= -975
 R170: 500 C11 + 500 C27 + 500 C55 + C91 - C93 <= 1010
 R171: - 500 C11 - 500 C27 - 500 C55 + C91 - C93 >= -990
 R172: 500 C13 + 500 C27 + 500 C57 + C91 - C95 <= 1010
 R173: - 500 C13 - 500 C27 - 500 C57 + C91 - C95 >= -990
 R174: 500 C14 + 500 C30 + 500 C61 + C91 - C93 <= 1014
 R175: - 500 C14 - 500 C30 - 500 C61 + C91 - C93 >= -986
 R176: 500 C16 + 500 C30 + 500 C63 + C91 - C95 <= 1014
 R177: - 500 C16 - 500 C30 - 500 C63 + C91 - C95 >= -986
 R178: 500 C17 + 500 C33 + 500 C67 + C91 - C93 <= 1017
 R179: - 500 C17 - 500 C33 - 500 C67 + C91 - C93 >= -983
 R180: 500 C19 + 500 C33 + 500 C69 + C91 - C95 <= 1017
 R181: - 500 C19 - 500 C33 - 500 C69 + C91 - C95 >= -983
 R182: 500 C5 + 500 C35 + 500 C43 - C93 + C94 <= 1014
 R183: - 500 C5 - 500 C35 - 500 C43 - C93 + C94 >= -986
 R184: 500 C8 + 500 C36 + 500 C49 - C93 + C94 <= 1024
 R185: - 500 C8 - 500 C36 - 500 C49 - C93 + C94 >= -976
 R186: 500 C11 + 500 C37 + 500 C55 - C93 + C94 <= 1011
 R187: - 500 C11 - 500 C37 - 500 C55 - C93 + C94 >= -989
 R188: 500 C14 + 500 C38 + 500 C61 - C93 + C94 <= 1011
 R189: - 500 C14 - 500 C38 - 500 C61 - C93 + C94 >= -989
 R190: 500 C17 + 500 C39 + 500 C67 - C93 + C94 <= 1010
 R191: - 500 C17 - 500 C39 - 500 C67 - C93 + C94 >= -990
 R192: 100 C40 - C85 + C90 <= 113
 R193: - 100 C40 - C85 + C90 >= -87
 R194: 100 C41 - C85 + C91 <= 114
 R195: - 100 C41 - C85 + C91 >= -86
 R196: 100 C42 - C85 + C92 <= 118
 R197: - 100 C42 - C85 + C92 >= -82
 R198: 100 C46 - C86 + C90 <= 126
 R199: - 100 C46 - C86 + C90 >= -74
 R200: 100 C47 - C86 + C91 <= 106
 R201: - 100 C47 - C86 + C91 >= -94
 R202: 100 C48 - C86 + C92 <= 109
 R203: - 100 C48 - C86 + C92 >= -91
 R204: 100 C52 - C87 + C90 <= 127
 R205: - 100 C52 - C87 + C90 >= -73
 R206: 100 C53 - C87 + C91 <= 112
 R207: - 100 C53 - C87 + C91 >= -88
 R208: 100 C54 - C87 + C92 <= 110
 R209: - 100 C54 - C87 + C92 >= -90
 R210: 100 C58 - C88 + C90 <= 122
 R211: - 100 C58 - C88 + C90 >= -78
 R212: 100 C59 - C88 + C91 <= 122
 R213: - 100 C59 - C88 + C91 >= -78
 R214: 100 C60 - C88 + C92 <= 114
 R215: - 100 C60 - C88 + C92 >= -86
 R216: 100 C64 - C89 + C90 <= 126
 R217: - 100 C64 - C89 + C90 >= -74
 R218: 100 C65 - C89 + C91 <= 109
 R219: - 100 C65 - C89 + C91 >= -91
 R220: 100 C66 - C89 + C92 <= 107
 R221: - 100 C66 - C89 + C92 >= -93
 R222: 100 C43 - C85 + C93 <= 103
 R223: - 100 C43 - C85 + C93 >= -97
 R224: 100 C44 - C85 + C94 <= 124
 R225: - 100 C44 - C85 + C94 >= -76
 R226: 100 C45 - C85 + C95 <= 122
 R227: - 100 C45 - C85 + C95 >= -78
 R228: 100 C49 - C86 + C93 <= 130
 R229: - 100 C49 - C86 + C93 >= -70
 R230: 100 C50 - C86 + C94 <= 117
 R231: - 100 C50 - C86 + C94 >= -83
 R232: 100 C51 - C86 + C95 <= 115
 R233: - 100 C51 - C86 + C95 >= -85
 R234: 100 C55 - C87 + C93 <= 125
 R235: - 100 C55 - C87 + C93 >= -75
 R236: 100 C56 - C87 + C94 <= 126
 R237: - 100 C56 - C87 + C94 >= -74
 R238: 100 C57 - C87 + C95 <= 121
 R239: - 100 C57 - C87 + C95 >= -79
 R240: 100 C61 - C88 + C93 <= 124
 R241: - 100 C61 - C88 + C93 >= -76
 R242: 100 C62 - C88 + C94 <= 108
 R243: - 100 C62 - C88 + C94 >= -92
 R244: 100 C63 - C88 + C95 <= 120
 R245: - 100 C63 - C88 + C95 >= -80
 R246: 100 C67 - C89 + C93 <= 112
 R247: - 100 C67 - C89 + C93 >= -88
 R248: 100 C68 - C89 + C94 <= 123
 R249: - 100 C68 - C89 + C94 >= -77
 R250: 100 C69 - C89 + C95 <= 108
 R251: - 100 C69 - C89 + C95 >= -92
 R252: C90 - C91 <= -1
 R253: C91 - C92 <= -1
 R254: C93 - C94 <= -1
 R255: C94 - C95 <= -1
 R256: C5 + 8 C6 + 5 C7 + 9 C20 + 22 C21 + 7 C22 + 13 C40 + 14 C41 + 18 C42
   + 3 C43 + 24 C44 + 22 C45 <= 100
 R257: 26 C8 + 7 C9 + C10 + 29 C23 + 25 C24 + 6 C25 + 26 C46 + 6 C47
   + 9 C48 + 30 C49 + 17 C50 + 15 C51 <= 100
 R258: 23 C11 + 6 C12 + 9 C13 + 4 C26 + 10 C27 + 26 C28 + 27 C52 + 12 C53
   + 10 C54 + 25 C55 + 26 C56 + 21 C57 <= 100
 R259: 20 C14 + 8 C15 + 28 C16 + 13 C29 + 14 C30 + 12 C31 + 22 C58 + 22 C59
   + 14 C60 + 24 C61 + 8 C62 + 20 C63 <= 100
 R260: 10 C17 + 7 C18 + 30 C19 + 25 C32 + 17 C33 + 5 C34 + 26 C64 + 9 C65
   + 7 C66 + 12 C67 + 23 C68 + 8 C69 <= 100
Bounds
Binaries
 C0 C1 C2 C3 C4 C5 C6 C7 C8 C9 C10 C11 C12 C13 C14 C15 C16 C17 C18 C19 C20
 C21 C22 C23 C24 C25 C26 C27 C28 C29 C30 C31 C32 C33 C34 C35 C36 C37 C38
 C39 C40 C41 C42 C43 C44 C45 C46 C47 C48 C49 C50 C51 C52 C53 C54 C55 C56
 C57 C58 C59 C60 C61 C62 C63 C64 C65 C66 C67 C68 C69 C70 C71 C72 C73 C74
 C75 C76 C77 C78 C79 C80 C81 C82 C83 C84
End
